% File represents an instance of a Composite Structure problem to be solved by a CP framework
% Created on 2025-03-26 10:42:19.251
T = 58;
n = 36;
m = 60;
edges = [(1, 2),
(7, 8),
(13, 14),
(20, 19),
(26, 25),
(31, 32),
(2, 3),
(9, 8),
(15, 14),
(20, 21),
(26, 27),
(32, 33),
(3, 4),
(9, 10),
(15, 16),
(22, 21),
(28, 27),
(34, 33),
(5, 4),
(11, 10),
(17, 16),
(23, 22),
(28, 29),
(34, 35),
(6, 5),
(11, 12),
(17, 18),
(23, 24),
(29, 30),
(35, 36),
(1, 7),
(7, 13),
(13, 19),
(25, 19),
(31, 25),
(2, 8),
(8, 14),
(20, 14),
(26, 20),
(26, 32),
(9, 3),
(9, 15),
(15, 21),
(27, 21),
(27, 33),
(10, 4),
(10, 16),
(22, 16),
(28, 22),
(28, 34),
(11, 5),
(11, 17),
(23, 17),
(29, 23),
(29, 35),
(6, 12),
(12, 18),
(24, 18),
(30, 24),
(30, 36)];
counts = [|14, 14, 14, 16,
|14, 14, 14, 12,
|14, 12, 14, 12,
|14, 12, 14, 10,
|14, 14, 14, 10,
|14, 16, 14, 12,
|12, 14, 12, 14,
|12, 14, 12, 12,
|14, 14, 14, 12,
|14, 12, 14, 12,
|14, 14, 14, 16,
|14, 14, 14, 12,
|12, 12, 12, 14,
|12, 12, 12, 12,
|14, 12, 14, 12,
|12, 10, 12, 12,
|14, 12, 14, 12,
|12, 12, 12, 12,
|12, 10, 12, 14,
|12, 14, 12, 16,
|12, 12, 12, 12,
|14, 12, 14, 12,
|14, 12, 14, 14,
|12, 12, 12, 14,
|12, 10, 12, 18,
|12, 14, 12, 20,
|12, 12, 12, 16,
|14, 12, 14, 18,
|14, 12, 14, 16,
|14, 12, 14, 14,
|12, 10, 12, 22,
|12, 10, 12, 20,
|12, 10, 12, 14,
|12, 12, 12, 18,
|12, 12, 12, 16,
|12, 10, 12, 14|];
